min: 960 x1 + 347 x2 + 156 x3 + 429 x4 + 855 x5 + 873 x6 + 441 x7 + 517 x8 + 55 x9 + 21 x10 + 165 x11 + 840 x12 + 143 x13 + 37 x14 + 942 x15;

x2 + x12 + x5 >= 1;
x6 + x9 + x11 + x13 + x3 + x4 >= 1;
x13 + x5 + x1 + x7 + x2 >= 1;
x14 + x8 + x11 + x7 + x4 >= 1;
x5 + x1 + x2 + x11 + x9 + x13 >= 1;
x9 + x12 + x6 >= 1;
x7 + x8 + x4 + x2 + x14 + x15 >= 1;
x5 + x4 + x6 + x13 + x8 >= 1;
x15 + x8 + x7 + x14 + x12 + x9 >= 1;
x6 + x12 >= 1;
x8 + x6 + x15 + x14 + x9 + x13 >= 1;
x9 >= 1;
x3 + x6 >= 1;
x1 + x2 + x9 >= 1;
x4 + x3 + x15 + x11 + x8 >= 1;
x5 + x4 + x11 + x9 + x2 + x10 >= 1;
x10 + x9 + x1 + x12 >= 1;
x13 + x2 + x4 + x3 + x10 + x9 >= 1;
x12 + x11 + x3 + x4 + x14 + x10 >= 1;
x10 + x14 + x15 + x4 + x1 + x6 >= 1;
x10 + x12 + x6 >= 1;
x1 + x14 + x9 + x6 + x11 >= 1;
x6 + x14 + x9 + x5 >= 1;
x9 + x13 + x7 + x2 + x10 >= 1;
x14 >= 1;
x7 >= 1;
x13 + x9 >= 1;
x14 + x1 + x6 + x13 + x11 >= 1;
x7 + x12 + x1 + x11 + x5 >= 1;
x2 + x8 + x5 >= 1;
x13 + x6 + x10 + x8 >= 1;
x4 + x12 + x10 >= 1;
x8 + x5 + x13 + x14 >= 1;
x4 + x12 + x5 >= 1;
x10 >= 1;
x12 + x13 + x10 + x1 + x9 + x5 >= 1;
x12 >= 1;
x1 >= 1;
x8 + x3 + x13 + x10 >= 1;
x5 + x6 >= 1;
x8 + x11 >= 1;
x11 >= 1;
x4 + x7 + x10 >= 1;
x1 + x13 + x12 + x8 >= 1;
x4 + x12 + x13 >= 1;
x6 >= 1;
x14 + x13 + x7 >= 1;
x6 + x1 + x9 >= 1;
x8 + x9 + x11 >= 1;
x3 + x4 + x13 + x7 + x15 + x11 >= 1;

bin x1, x2, x3, x4, x5, x6, x7, x8, x9, x10, x11, x12, x13, x14, x15;
